decision_x2=[0,4];
decision_x3=[0,4];
decision_x4=[0,4];
decision_x5=[0,4];
decision_x6=[0,4];
decision_x7=[0,4];
decision_x8=[0,4];
decision_x9=[0,4];
decision_x10=[0,4];
decision_x11=[0,4];
decision_x12=[0,4];
decision_x13=[0,4];
decision_x14=[0,4];
decision_x15=[0,4];
decision_x1=[0,4];
random_y1=[0,4];
random_y2=[0,4];
random_y3=[0,4];
constraint_x3_x1=[
0,1,7.2|
0,2,9.3|
0,3,1.3|
0,4,7.4|
1,0,2.3|
1,2,4.8|
1,3,5|
1,4,1.6|
2,0,0.87|
2,1,4.6|
2,3,8.4|
2,4,4.6|
3,0,7.2|
3,1,3.4|
3,2,8.1|
3,4,9.5|
4,0,6.5|
4,1,0.67|
4,2,6.1|
4,3,5.2|
];
constraint_x3_x2=[
0,1,7.9|
0,2,7|
0,3,3.3|
0,4,8.6|
1,0,7|
1,2,1.9|
1,3,4.4|
1,4,6.7|
2,0,9.6|
2,1,2|
2,3,1.8|
2,4,8.7|
3,0,0.17|
3,1,9.3|
3,2,5.9|
3,4,4.1|
4,0,1.5|
4,1,9.3|
4,2,2.3|
4,3,0.62|
];
constraint_x4_x1=[
0,1,9.3|
0,2,7.6|
0,3,5.4|
0,4,0.56|
1,0,1.3|
1,2,1.9|
1,3,3|
1,4,3.9|
2,0,5.3|
2,1,1.1|
2,3,6.6|
2,4,8.8|
3,0,0.8|
3,1,2.3|
3,2,8.5|
3,4,0.98|
4,0,8.1|
4,1,3.3|
4,2,7.4|
4,3,7.7|
];
constraint_x4_x3=[
0,1,8.4|
0,2,3.4|
0,3,0.72|
0,4,4.8|
1,0,4.5|
1,2,9.7|
1,3,2.2|
1,4,8.7|
2,0,7|
2,1,6.7|
2,3,9.3|
2,4,4.4|
3,0,4.4|
3,1,8.8|
3,2,0.12|
3,4,7.5|
4,0,4|
4,1,1.9|
4,2,3.7|
4,3,9.8|
];
constraint_x5_x3=[
0,1,0.44|
0,2,0.72|
0,3,7.2|
0,4,2.2|
1,0,4.3|
1,2,6|
1,3,0.91|
1,4,9.6|
2,0,7.9|
2,1,8.6|
2,3,1.6|
2,4,5.2|
3,0,3.8|
3,1,6.8|
3,2,6.8|
3,4,8.2|
4,0,1|
4,1,6.1|
4,2,4.9|
4,3,7.9|
];
constraint_x5_x4=[
0,1,0.63|
0,2,3.7|
0,3,3.8|
0,4,5.7|
1,0,3.4|
1,2,8.1|
1,3,2.3|
1,4,3.4|
2,0,3.7|
2,1,6.9|
2,3,7.1|
2,4,5.2|
3,0,0.61|
3,1,2.8|
3,2,8.5|
3,4,3.3|
4,0,8.8|
4,1,3.6|
4,2,8.8|
4,3,0.7|
];
constraint_x6_x2=[
0,1,4.2|
0,2,2.7|
0,3,7.5|
0,4,8.8|
1,0,6.2|
1,2,1.6|
1,3,8.2|
1,4,8.9|
2,0,7.3|
2,1,5.1|
2,3,9|
2,4,2.1|
3,0,1.1|
3,1,9.7|
3,2,4.3e-05|
3,4,7.7|
4,0,4.5|
4,1,1.4|
4,2,2.5|
4,3,7.2|
];
constraint_x6_x4=[
0,1,0.37|
0,2,4.9|
0,3,7.4|
0,4,8.3|
1,0,2.1|
1,2,4|
1,3,7|
1,4,3|
2,0,9.5|
2,1,1.5|
2,3,7.5|
2,4,3.8|
3,0,5.9|
3,1,7.8|
3,2,8.6|
3,4,2|
4,0,5.4|
4,1,8.8|
4,2,3.5|
4,3,1.3|
];
constraint_x6_x5=[
0,1,9.3|
0,2,0.37|
0,3,7.3|
0,4,2.4|
1,0,1.5|
1,2,7.6|
1,3,5.2|
1,4,7.5|
2,0,4.1|
2,1,7|
2,3,6.4|
2,4,4.9|
3,0,2|
3,1,6.2|
3,2,9.1|
3,4,4.4|
4,0,7.9|
4,1,0.89|
4,2,8|
4,3,4.9|
];
constraint_x7_x1=[
0,1,6.5|
0,2,0.92|
0,3,0.011|
0,4,1.2|
1,0,0.77|
1,2,8.1|
1,3,1.1|
1,4,4.6|
2,0,1.8|
2,1,8.8|
2,3,3.3|
2,4,3|
3,0,5.3|
3,1,0.14|
3,2,2|
3,4,8.4|
4,0,2.4|
4,1,3.3|
4,2,3.5|
4,3,7.8|
];
constraint_x7_x2=[
0,1,3.7|
0,2,6.5|
0,3,5.2|
0,4,8.3|
1,0,8.1|
1,2,1.3|
1,3,3.1|
1,4,7.1|
2,0,9|
2,1,4.5|
2,3,4.4|
2,4,6.5|
3,0,7.4|
3,1,9.7|
3,2,1.8|
3,4,4.4|
4,0,9.8|
4,1,9|
4,2,3.4|
4,3,6.2|
];
constraint_x7_x5=[
0,1,5.1|
0,2,7|
0,3,2.6|
0,4,5.6|
1,0,9.7|
1,2,9.1|
1,3,5.9|
1,4,8.9|
2,0,2.9|
2,1,6.9|
2,3,8.3|
2,4,3|
3,0,1.3|
3,1,4.7|
3,2,0.62|
3,4,3.4|
4,0,8.6|
4,1,9.4|
4,2,2.7|
4,3,3.6|
];
constraint_x8_x1=[
0,1,7.7|
0,2,0.72|
0,3,9.9|
0,4,2.6|
1,0,5.2|
1,2,5.5|
1,3,7|
1,4,1.9|
2,0,2.8|
2,1,8.5|
2,3,4.3|
2,4,1.6|
3,0,4.5|
3,1,0.15|
3,2,4.4|
3,4,7.7|
4,0,9.7|
4,1,7.5|
4,2,7.2|
4,3,0.54|
];
constraint_x8_x2=[
0,1,2.1|
0,2,5.4|
0,3,2.8|
0,4,9.9|
1,0,5.4|
1,2,4|
1,3,7.7|
1,4,1.2|
2,0,8.9|
2,1,0.67|
2,3,5.4|
2,4,5.1|
3,0,4.2|
3,1,4.5|
3,2,8.3|
3,4,10|
4,0,6.9|
4,1,9.8|
4,2,9.8|
4,3,6.3|
];
constraint_x8_x3=[
0,1,6.1|
0,2,0.31|
0,3,3.8|
0,4,1.1|
1,0,9.9|
1,2,3.3|
1,3,1.3|
1,4,2.5|
2,0,4.7|
2,1,2.5|
2,3,7.1|
2,4,9.9|
3,0,5.9|
3,1,0.46|
3,2,7.3|
3,4,0.62|
4,0,2.1|
4,1,2.6|
4,2,1.7|
4,3,5.4|
];
constraint_x8_x4=[
0,1,1.8|
0,2,3|
0,3,9|
0,4,4.5|
1,0,1.8|
1,2,5.5|
1,3,4.7|
1,4,5.4|
2,0,7.3|
2,1,5.1|
2,3,7.8|
2,4,4.9|
3,0,0.86|
3,1,2.7|
3,2,6.1|
3,4,1.5|
4,0,0.67|
4,1,6.6|
4,2,9|
4,3,0.38|
];
constraint_x8_x5=[
0,1,5.8|
0,2,4.1|
0,3,6.3|
0,4,0.74|
1,0,4.7|
1,2,0.86|
1,3,4.3|
1,4,9.3|
2,0,3.7|
2,1,7.4|
2,3,5.5|
2,4,7.6|
3,0,6.4|
3,1,7.6|
3,2,8.5|
3,4,9.5|
4,0,1.5|
4,1,5.8|
4,2,6.9|
4,3,0.3|
];
constraint_x8_x6=[
0,1,3.9|
0,2,1.4|
0,3,6|
0,4,2.7|
1,0,7.7|
1,2,6.3|
1,3,6.8|
1,4,4.1|
2,0,3.5|
2,1,9.3|
2,3,1.5|
2,4,1.3|
3,0,1.5|
3,1,8.4|
3,2,0.04|
3,4,4.4|
4,0,4.2|
4,1,3|
4,2,5.4|
4,3,1.2|
];
constraint_x9_x1=[
0,1,0.022|
0,2,4.2|
0,3,1.5|
0,4,7|
1,0,4.3|
1,2,2.1|
1,3,9.4|
1,4,1.7|
2,0,4.5|
2,1,8.9|
2,3,1|
2,4,5.5|
3,0,3.6|
3,1,9.2|
3,2,0.43|
3,4,1.6|
4,0,6.1|
4,1,9.5|
4,2,1|
4,3,4|
];
constraint_x9_x2=[
0,1,4.8|
0,2,0.81|
0,3,9.2|
0,4,8.9|
1,0,1.2|
1,2,9.8|
1,3,5.6|
1,4,9.6|
2,0,9.5|
2,1,7.5|
2,3,2.5|
2,4,5.2|
3,0,1.6|
3,1,8.3|
3,2,5.4|
3,4,4.8|
4,0,1.2|
4,1,4.5|
4,2,4.6|
4,3,0.4|
];
constraint_x9_x5=[
0,1,0.89|
0,2,0.82|
0,3,6.2|
0,4,8.8|
1,0,2.9|
1,2,5.7|
1,3,8.3|
1,4,7.2|
2,0,3.6|
2,1,4.6|
2,3,4.4|
2,4,1.3|
3,0,9.1|
3,1,7.4|
3,2,2|
3,4,4.9|
4,0,6.6|
4,1,0.47|
4,2,2|
4,3,6.1|
];
constraint_x9_x6=[
0,1,5.9|
0,2,7.3|
0,3,0.77|
0,4,8|
1,0,9.6|
1,2,3.7|
1,3,3.3|
1,4,9.2|
2,0,6.5|
2,1,3.8|
2,3,3.9|
2,4,5.9|
3,0,9.8|
3,1,7.6|
3,2,7.9|
3,4,6|
4,0,6.6|
4,1,8.1|
4,2,6.1|
4,3,8.8|
];
constraint_x10_x5=[
0,1,8.5|
0,2,2.6|
0,3,2.9|
0,4,0.58|
1,0,8.9|
1,2,8.9|
1,3,4.5|
1,4,5.5|
2,0,9.1|
2,1,1.8|
2,3,7.8|
2,4,8.9|
3,0,1.9|
3,1,6.1|
3,2,4.6|
3,4,7.5|
4,0,2.6|
4,1,0.32|
4,2,2.4|
4,3,7.3|
];
constraint_x10_x9=[
0,1,7.8|
0,2,4.4|
0,3,7.5|
0,4,5.7|
1,0,8.4|
1,2,7.1|
1,3,5.5|
1,4,7.6|
2,0,3.8|
2,1,8.7|
2,3,0.18|
2,4,6.2|
3,0,6.5|
3,1,9.1|
3,2,7.3|
3,4,5.2|
4,0,0.39|
4,1,4.3|
4,2,2.4|
4,3,3.4|
];
constraint_x11_x2=[
0,1,3.1|
0,2,0.43|
0,3,8.5|
0,4,3.5|
1,0,3.1|
1,2,0.077|
1,3,3.8|
1,4,8.7|
2,0,5.7|
2,1,5.1|
2,3,2.4|
2,4,9.7|
3,0,3.2|
3,1,5.8|
3,2,3.7|
3,4,8.7|
4,0,1.3|
4,1,5.5|
4,2,8.9|
4,3,6.2|
];
constraint_x11_x3=[
0,1,0.14|
0,2,4.8|
0,3,5.1|
0,4,5.8|
1,0,8.7|
1,2,2|
1,3,7.3|
1,4,8.4|
2,0,0.81|
2,1,1.6|
2,3,4.2|
2,4,6.9|
3,0,4.5|
3,1,2.4|
3,2,5.1|
3,4,7.5|
4,0,7.1|
4,1,0.43|
4,2,4|
4,3,6.1|
];
constraint_x11_x5=[
0,1,2.2|
0,2,10|
0,3,4.3|
0,4,9.4|
1,0,7.8|
1,2,5.1|
1,3,9.9|
1,4,6.9|
2,0,8.4|
2,1,3.8|
2,3,6.2|
2,4,9.4|
3,0,5.5|
3,1,6.3|
3,2,7.3|
3,4,5.8|
4,0,1.8|
4,1,0.49|
4,2,3.1|
4,3,5|
];
constraint_x11_x6=[
0,1,5.9|
0,2,6.5|
0,3,8.1|
0,4,3.6|
1,0,7.7|
1,2,1.5|
1,3,10|
1,4,3|
2,0,4.7|
2,1,8.4|
2,3,3.9|
2,4,0.51|
3,0,2.5|
3,1,5.5|
3,2,9.5|
3,4,5|
4,0,9.4|
4,1,8.6|
4,2,3.3|
4,3,8|
];
constraint_x11_x7=[
0,1,0.92|
0,2,4.2|
0,3,0.56|
0,4,5|
1,0,6|
1,2,3.4|
1,3,2.5|
1,4,8|
2,0,8.9|
2,1,1.8|
2,3,5.5|
2,4,6.6|
3,0,4.8|
3,1,1.5|
3,2,2.2|
3,4,7.1|
4,0,0.66|
4,1,6.5|
4,2,3.7|
4,3,1.3|
];
constraint_x11_x9=[
0,1,8.7|
0,2,7.7|
0,3,2.7|
0,4,4.3|
1,0,0.35|
1,2,7.7|
1,3,5.1|
1,4,7.9|
2,0,1.2|
2,1,2.9|
2,3,0.8|
2,4,8.4|
3,0,6.1|
3,1,3.9|
3,2,9.1|
3,4,0.13|
4,0,0.49|
4,1,0.3|
4,2,0.24|
4,3,1.3|
];
constraint_x11_x10=[
0,1,7.7|
0,2,2.6|
0,3,3.2|
0,4,4|
1,0,8.5|
1,2,2.8|
1,3,5.8|
1,4,4.2|
2,0,3.2|
2,1,4.9|
2,3,1.5|
2,4,8|
3,0,7.7|
3,1,6.4|
3,2,5|
3,4,6.4|
4,0,9.8|
4,1,6.4|
4,2,0.93|
4,3,9.2|
];
constraint_x12_x1=[
0,1,4.7|
0,2,5.9|
0,3,6.2|
0,4,5.8|
1,0,1.5|
1,2,0.63|
1,3,8.2|
1,4,3.7|
2,0,0.96|
2,1,9.5|
2,3,4.3|
2,4,0.31|
3,0,5.1|
3,1,4.1|
3,2,1.5|
3,4,2.8|
4,0,3|
4,1,6.3|
4,2,2.4|
4,3,7.4|
];
constraint_x12_x2=[
0,1,9.9|
0,2,3.7|
0,3,9.7|
0,4,9.4|
1,0,1.4|
1,2,8.1|
1,3,6.5|
1,4,5.4|
2,0,0.97|
2,1,2.8|
2,3,4.1|
2,4,7.6|
3,0,3.5|
3,1,1.1|
3,2,5.3|
3,4,2.7|
4,0,8.5|
4,1,7.7|
4,2,4.7|
4,3,0.2|
];
constraint_x12_x5=[
0,1,2.1|
0,2,2|
0,3,6.9|
0,4,2.4|
1,0,3.8|
1,2,1.9|
1,3,8|
1,4,1.6|
2,0,9.1|
2,1,1.1|
2,3,8.8|
2,4,0.57|
3,0,0.64|
3,1,3.4|
3,2,1.8|
3,4,5.1|
4,0,5.8|
4,1,4.3|
4,2,4.5|
4,3,8.2|
];
constraint_x12_x6=[
0,1,7.1|
0,2,9.2|
0,3,2.2|
0,4,2.4|
1,0,7.3|
1,2,2.4|
1,3,2.2|
1,4,1.9|
2,0,8.6|
2,1,4.7|
2,3,8.2|
2,4,3|
3,0,4.3|
3,1,8.2|
3,2,5.1|
3,4,6.7|
4,0,0.41|
4,1,4|
4,2,8.5|
4,3,8.3|
];
constraint_x12_x7=[
0,1,6.5|
0,2,6.7|
0,3,2.6|
0,4,9.9|
1,0,0.97|
1,2,1.7|
1,3,0.92|
1,4,7.7|
2,0,2.2|
2,1,2.8|
2,3,1.8|
2,4,3|
3,0,2.3|
3,1,4.2|
3,2,6.2|
3,4,9.3|
4,0,3.5|
4,1,7.9|
4,2,1.7|
4,3,7.5|
];
constraint_x12_x8=[
0,1,7.4|
0,2,7.8|
0,3,5.4|
0,4,4.9|
1,0,5.4|
1,2,1.9|
1,3,2.8|
1,4,5.4|
2,0,3|
2,1,7.2|
2,3,2.6|
2,4,2.9|
3,0,8.8|
3,1,1.7|
3,2,2.9|
3,4,2.5|
4,0,6.9|
4,1,1.5|
4,2,3.8|
4,3,7.6|
];
constraint_x12_x10=[
0,1,3.4|
0,2,8.5|
0,3,1.3|
0,4,9.1|
1,0,9.5|
1,2,5.5|
1,3,5|
1,4,6.7|
2,0,7.7|
2,1,9.9|
2,3,4.4|
2,4,2.5|
3,0,9.4|
3,1,0.55|
3,2,2.7|
3,4,1.2|
4,0,0.11|
4,1,5|
4,2,4.6|
4,3,7.9|
];
constraint_x13_x3=[
0,1,0.076|
0,2,7.1|
0,3,9.8|
0,4,4.9|
1,0,2.3|
1,2,6|
1,3,7.3|
1,4,2.2|
2,0,7.2|
2,1,4.1|
2,3,6.5|
2,4,2.9|
3,0,8.3|
3,1,6.9|
3,2,9.3|
3,4,5.6|
4,0,6.4|
4,1,8|
4,2,4.5|
4,3,1|
];
constraint_x13_x6=[
0,1,0.48|
0,2,3.6|
0,3,1|
0,4,2.3|
1,0,5.7|
1,2,6|
1,3,7.9|
1,4,0.92|
2,0,2.9|
2,1,1.9|
2,3,2.5|
2,4,2.4|
3,0,8.2|
3,1,8.4|
3,2,8.6|
3,4,8.5|
4,0,9.8|
4,1,2.2|
4,2,4.4|
4,3,1.5|
];
constraint_x13_x8=[
0,1,4.1|
0,2,2.8|
0,3,2.8|
0,4,3|
1,0,5.5|
1,2,6.5|
1,3,8.1|
1,4,2.1|
2,0,1.1|
2,1,7.8|
2,3,2.4|
2,4,3.3|
3,0,3.3|
3,1,6|
3,2,4.1|
3,4,9.5|
4,0,1|
4,1,5.3|
4,2,6.5|
4,3,0.41|
];
constraint_x13_x12=[
0,1,8.6|
0,2,1.4|
0,3,8.6|
0,4,6.6|
1,0,6.7|
1,2,5.6|
1,3,5.6|
1,4,2.7|
2,0,5.8|
2,1,2.7|
2,3,9.8|
2,4,2.2|
3,0,8.4|
3,1,9.4|
3,2,5.2|
3,4,2.3|
4,0,1.3|
4,1,5.5|
4,2,2.8|
4,3,9.8|
];
constraint_x14_x6=[
0,1,7.7|
0,2,2.3|
0,3,8.5|
0,4,1|
1,0,5.5|
1,2,8.8|
1,3,3.9|
1,4,5.9|
2,0,4.4|
2,1,8.5|
2,3,5.4|
2,4,4.8|
3,0,4.7|
3,1,2.2|
3,2,2.6|
3,4,1.1|
4,0,7.6|
4,1,5.1|
4,2,2.6|
4,3,3.9|
];
constraint_x14_x10=[
0,1,8.4|
0,2,6.5|
0,3,2.9|
0,4,5|
1,0,2.8|
1,2,9.4|
1,3,3.3|
1,4,2.5|
2,0,7|
2,1,9.7|
2,3,3.3|
2,4,1.2|
3,0,7|
3,1,5|
3,2,6.2|
3,4,6.6|
4,0,6.9|
4,1,7.5|
4,2,6.8|
4,3,0.18|
];
constraint_x14_x12=[
0,1,3|
0,2,0.64|
0,3,3|
0,4,1.2|
1,0,0.077|
1,2,2.2|
1,3,9|
1,4,3.9|
2,0,6.8|
2,1,8|
2,3,8|
2,4,2.1|
3,0,0.69|
3,1,7.4|
3,2,0.021|
3,4,5.8|
4,0,8.7|
4,1,6.7|
4,2,0.26|
4,3,4|
];
constraint_x15_x3=[
0,1,8|
0,2,4.6|
0,3,7.9|
0,4,0.83|
1,0,8.4|
1,2,7.5|
1,3,2.7|
1,4,9.3|
2,0,7.5|
2,1,1.6|
2,3,0.59|
2,4,2.2|
3,0,8.3|
3,1,2.9|
3,2,9.9|
3,4,9.5|
4,0,2.4|
4,1,4.4|
4,2,1.5|
4,3,6.4|
];
constraint_x15_x4=[
0,1,0.65|
0,2,2.2|
0,3,5.8|
0,4,4.4|
1,0,5.7|
1,2,9.6|
1,3,6.6|
1,4,3.8|
2,0,5.5|
2,1,1.2|
2,3,6.4|
2,4,3.9|
3,0,9.6|
3,1,6.3|
3,2,7.4|
3,4,5.7|
4,0,7.8|
4,1,5.1|
4,2,9.7|
4,3,1.2|
];
constraint_x15_x5=[
0,1,7.8|
0,2,6|
0,3,8|
0,4,5|
1,0,9.1|
1,2,0.74|
1,3,0.38|
1,4,7.5|
2,0,7.4|
2,1,2.2|
2,3,0.13|
2,4,2.1|
3,0,1.5|
3,1,8.9|
3,2,3|
3,4,7.2|
4,0,0.23|
4,1,9|
4,2,6.3|
4,3,8.5|
];
constraint_x15_x6=[
0,1,8.1|
0,2,6.2|
0,3,4.2|
0,4,8.2|
1,0,8.3|
1,2,4.5|
1,3,9.5|
1,4,3.9|
2,0,6.1|
2,1,3.6|
2,3,2.4|
2,4,3.8|
3,0,9.1|
3,1,5.5|
3,2,0.17|
3,4,2.4|
4,0,0.38|
4,1,4.6|
4,2,3.2|
4,3,1.7|
];
constraint_x15_x7=[
0,1,4.7|
0,2,9.7|
0,3,2.8|
0,4,9.7|
1,0,1.5|
1,2,3.1|
1,3,1.2|
1,4,0.81|
2,0,4.7|
2,1,0.26|
2,3,7.9|
2,4,0.14|
3,0,8.1|
3,1,6.7|
3,2,2.1|
3,4,0.21|
4,0,0.089|
4,1,8.4|
4,2,4.5|
4,3,3.4|
];
constraint_x15_x11=[
0,1,0.47|
0,2,6.2|
0,3,4.2|
0,4,3.8|
1,0,7.4|
1,2,3.5|
1,3,7.7|
1,4,9.1|
2,0,6.3|
2,1,1.4|
2,3,8.3|
2,4,6.4|
3,0,1.7|
3,1,8.7|
3,2,8.8|
3,4,6.6|
4,0,6.7|
4,1,1.7|
4,2,4.4|
4,3,4.3|
];
constraint_x15_x12=[
0,1,8.2|
0,2,3.7|
0,3,0.034|
0,4,9.2|
1,0,7.1|
1,2,6|
1,3,3|
1,4,9.8|
2,0,6.9|
2,1,1.3|
2,3,5.5|
2,4,1.7|
3,0,4.8|
3,1,9|
3,2,8.7|
3,4,7.1|
4,0,8.9|
4,1,4.9|
4,2,9.4|
4,3,9.1|
];
constraint_x15_x13=[
0,1,4.3|
0,2,7.9|
0,3,1.3|
0,4,6.5|
1,0,4.1|
1,2,0.14|
1,3,6.5|
1,4,7.4|
2,0,7.2|
2,1,6.6|
2,3,7.3|
2,4,3.1|
3,0,2.6|
3,1,0.21|
3,2,8.2|
3,4,9|
4,0,4.6|
4,1,0.74|
4,2,1.2|
4,3,1.7|
];
constraint_x1_y1=[
0,0,5.3|
0,1,5.5|
0,2,4.9|
0,3,1.4|
0,4,2.1|
1,0,6.8|
1,1,7.8|
1,2,2.2|
1,3,3.4|
1,4,4|
2,0,2.6|
2,1,6.2|
2,2,7.4|
2,3,8.6|
2,4,0.062|
3,0,4.4|
3,1,4.7|
3,2,6.2|
3,3,9.3|
3,4,5.9|
4,0,6|
4,1,7.3|
4,2,9.3|
4,3,6.2|
4,4,0.089|
];
constraint_x2_y2=[
0,0,6|
0,1,9.1|
0,2,1.8|
0,3,3.9|
0,4,2|
1,0,9.8|
1,1,8.6|
1,2,2.3|
1,3,9.2|
1,4,7.8|
2,0,0.18|
2,1,4.1|
2,2,9.4|
2,3,4.7|
2,4,7|
3,0,5.9|
3,1,3|
3,2,3.4|
3,3,0.41|
3,4,7.1|
4,0,1|
4,1,8.1|
4,2,0.29|
4,3,2.6|
4,4,6.6|
];
constraint_x3_y3=[
0,0,4.6|
0,1,1.9|
0,2,2|
0,3,8.8|
0,4,9.8|
1,0,5.2|
1,1,3.8|
1,2,2.5|
1,3,9.6|
1,4,3.8|
2,0,3.9|
2,1,0.078|
2,2,1.4|
2,3,8.8|
2,4,2.7|
3,0,0.72|
3,1,9.7|
3,2,5.8|
3,3,3.8|
3,4,8|
4,0,7.6|
4,1,1.6|
4,2,8.1|
4,3,2|
4,4,7.7|
];
initial_distribution_y1=[0.092,0.19,0.34,0.36,0.019];
initial_distribution_y2=[0.074,0.16,0.33,0.11,0.33];
initial_distribution_y3=[0.045,0.36,0.44,0.14,0.013];
transition_y1=[
0.032,0.2,0.029,0.55,0.18|
0.035,0.25,0.29,0.32,0.11|
0.31,0.15,0.2,0.095,0.24|
0.015,0.26,0.1,0.36,0.26|
0.2,0.29,0.18,0.052,0.29|
];
transition_y2=[
0.19,0.41,0.017,0.044,0.34|
0.21,0.24,0.22,0.15,0.18|
0.16,0.054,0.078,0.36,0.35|
0.22,0.24,0.2,0.13,0.22|
0.2,0.24,0.26,0.038,0.26|
];
transition_y3=[
0.26,0.25,0.2,0.16,0.14|
0.21,0.076,0.15,0.28,0.28|
0.3,0.2,0.21,0.28,0.02|
0.1,0.34,0.34,0.16,0.046|
0.29,0.18,0.13,0.12,0.27|
];
